13 5 5 8 11 8 6 12 4 
13 8 11 2 10 12 12 
13 6 12 9 3 8 
13 3 4 7 5 5 10 2 5 1 13 
13 13 7 6 9 10 4 13 
13 8 12 9 6 10 10 8 
13 13 12 6 6 3 7 11 
13 4 10 6 2 3 2 2 11 
13 9 9 8 6 4 4 11 13 
13 2 7 7 10 5 2 1 7 
13 7 7 7 6 10 
13 6 11 10 1 2 
13 3 9 10 3 11 3 5 12 8 
13 6 3 6 10 13 
13 5 8 5 9 13 7 12 7 9 
13 5 10 8 4 9 2 11 1 3 
13 13 6 1 2 1 11 2 2 9
13 9 13 4 13 11 3 10 
13 1 9 6 1 10 4 7 7
13 9 1 3 11 12 5 
13 13 8 3 4 8 7 
13 4 10 2 9 3 3 5 9 
13 1 1 6 6 5 10 1 5 
13 12 5 8 5 13 7 3 4
